Nb of jobs, Nb of Machines, Time seed, Machine seed, Upper bound, Lower bound
10,5,-1,-1,-1,-1
Times
14,59,33,13,62
59,81,86,49,61
18,76,77,14,5
36,24,34,94,73
21,15,10,36,69
9,85,32,35,63
29,78,79,35,34
32,24,3,24,91
11,20,35,14,58
26,79,22,5,73
Machines
2,3,1,5,4
4,3,2,1,5
2,5,3,4,1
2,5,3,4,1
5,1,3,4,2
1,3,2,5,4
3,4,2,5,1
4,1,2,3,5
1,2,3,4,5
5,3,4,2,1
